unsat
(:cnf-encoding-aux-vars 118
 :elim-unconstrained    3
 :max-memory            19.58
 :memory                18.91
 :nlsat-arith-var       21
 :nlsat-atoms           237
 :nlsat-bool-var        143
 :nlsat-clauses         691
 :nlsat-conflicts       10
 :nlsat-decisions       10
 :nlsat-propagations    41
 :num-allocs            1398502
 :rlimit-count          211917
 :solve-eqs-elim-vars   109
 :solve-eqs-steps       449
 :time                  0.18
 :total-time            0.19)
